Version identifier: 22.1.1.0 | 2022-11-28 | 9160aff4d
CPXPARAM_ClockType                               1
CPXPARAM_Read_DataCheck                          1
CPXPARAM_Threads                                 1
CPXPARAM_TimeLimit                               7200
CPXPARAM_MIP_Tolerances_AbsMIPGap                0
CPXPARAM_MIP_Tolerances_MIPGap                   0
CPXPARAM_MIP_Tolerances_Integrality              0
Tried aggregator 2 times.
MIP Presolve eliminated 13312 rows and 58 columns.
MIP Presolve modified 1208 coefficients.
Aggregator did 10 substitutions.
Reduced MIP has 11177 rows, 7588 columns, and 46828 nonzeros.
Reduced MIP has 7588 binaries, 0 generals, 0 SOSs, and 0 indicators.
Presolve time = 0.08 sec. (49.78 ticks)
Probing time = 0.01 sec. (4.06 ticks)
Tried aggregator 1 time.
Detecting symmetries...
Reduced MIP has 11177 rows, 7588 columns, and 46828 nonzeros.
Reduced MIP has 7588 binaries, 0 generals, 0 SOSs, and 0 indicators.
Presolve time = 0.05 sec. (30.04 ticks)
Probing time = 0.01 sec. (4.05 ticks)
Clique table members: 3982.
MIP emphasis: balance optimality and feasibility.
MIP search method: dynamic search.
Parallel mode: none, using 1 thread.
Root relaxation solution time = 2.25 sec. (1575.72 ticks)

        Nodes                                         Cuts/
   Node  Left     Objective  IInf  Best Integer    Best Bound    ItCnt     Gap

      0     0     3795.0000   910                   3795.0000     6456         
      0     0     3795.0000   465                    Cuts: 34     6734         
      0     0     3795.0000   513                    Cuts: 47     7523         
      0     0     3795.0000   117                 ZeroHalf: 5     7542         
      0     0     3795.0000   122                ZeroHalf: 13     7560         
*     0+    0                         3795.0000     3795.0000             0.00%
      0     0        cutoff           3795.0000     3795.0000     7560    0.00%
Elapsed time = 9.51 sec. (6030.28 ticks, tree = 0.01 MB, solutions = 1)

Clique cuts applied:  5
Zero-half cuts applied:  11
Lift and project cuts applied:  1
Gomory fractional cuts applied:  1

Root node processing (before b&c):
  Real time             =    9.51 sec. (6030.55 ticks)
Sequential b&c:
  Real time             =    0.00 sec. (0.00 ticks)
                          ------------
Total (root+branch&cut) =    9.51 sec. (6030.55 ticks)
Solution is feasible.

---------------------
@@@ MIP_optimal
>>> Benchmark mc2024_track1_006.cnf k 10 OPT 3795 TimeCost 12.437621116638184 TimeSolve 9.603758335113525 TimeRead 0.0045166015625 TimeTrans 2.829346179962158
